Traveling Salesman Problem/TSP_generados/Aleatorio1621104058_19.tsp
NAME: Aleatorio1621104058_19.tsp
COMMENT: Randomly generated scenario
TYPE: TSP
DIMENSION: 19
EDGE_WEIGHT_TYPE: ATT
NODE_COORD_SECTION
1 39.23 36.48
2 33.12 29.03
3 9.56 11.93
4 13.01 30.86
5 43.82 16.01
6 34.33 0.44
7 40.79 15.77
8 10.71 2.12
9 10.97 15.24
10 19.01 22.84
11 26.76 3.83
12 36.17 12.06
13 13.92 5.96
14 48.33 7.2
15 38.05 2.42
16 42.87 9.92
17 31.38 22.98
18 41.75 35.98
19 12.09 31.0
