Traveling Salesman Problem/TSP_generados/Aleatorio1621104058_19.opt.tour
NAME: Aleatorio1621104058_19.opt.tour
COMMENT: Optimal solution for Aleatorio1621104058_19 (155.13267036123386)
TYPE: TOUR
DIMENSION: 19
TOUR_SECTION
1 2 17 10 4 19 9 3 8 13 11 6 15 14 16 12 7 5 18
-1
EOF
